% Logging successfully configured
%%%mzn-stat: initTime=0.022897495
%%%mzn-stat: objective=1157
%%%mzn-stat: nodes=2811
%%%mzn-stat: restarts=0
%%%mzn-stat: peakDepth=453
%%%mzn-stat: solveTime=0.048692757
%%%mzn-stat: variables=1002
%%%mzn-stat: propagators=632
%%%mzn-stat: failures=142
%%%mzn-stat: propagations=18254
%%%mzn-stat: nogoods=142
%%%mzn-stat: numAtomicConstraintsPropagated=0
%%%mzn-stat: allDifferentNumber1TotalHallSetSize=452
%%%mzn-stat: allDifferentNumber1NumberOfConflicts=142
%%%mzn-stat: allDifferentNumber1MaxHallSetSize=49
%%%mzn-stat: allDifferentNumber1PropagationsTotal=2766
%%%mzn-stat: allDifferentNumber1PropagationsThatFoundConflict=142
%%%mzn-stat: circuitNumber2PropagationsThatFoundConflict=0
%%%mzn-stat: circuitNumber2TotalFixedEdgesAtConflict=0
%%%mzn-stat: circuitNumber2NumberOfConflicts=0
%%%mzn-stat: circuitNumber2PropagationsThatPruned=11
%%%mzn-stat: circuitNumber2PropagationsTotal=2270
%%%mzn-stat: AverageConflictSize=2.732394366197183
%%%mzn-stat: NumUnitNogoodsLearned=0
%%%mzn-stat: AverageLearnedNogoodLength=2.7253521126760565
%%%mzn-stat: AverageBacktrackAmount=0
%%%mzn-stat: AverageLbd=2.7183098591549295
%%%mzn-stat: 2AutonomousSearchNumBackupCalled=414
%%%mzn-stat: 2AutonomousSearchNumPredicatesRemoved=0
%%%mzn-stat: 2AutonomousSearchNumCalls=415
%%%mzn-stat: 2AutonomousSearchNumPredicatesAdded=233
%%%mzn-stat: 2AutonomousSearchAverageSizeOfHeap=0.5614457831325301
%%%mzn-stat: 2AutonomousSearchNumAssignedPredicatesEncountered=233
%%%mzn-stat-end
maxleg = 1157;
succ = array1d(1..50,[2, 15, 21, 3, 7, 18, 10, 20, 12, 16, 19, 4, 1, 24, 5, 6, 33, 22, 23, 11, 17, 32, 14, 9, 34, 8, 39, 50, 48, 49, 13, 25, 30, 38, 28, 27, 29, 42, 41, 26, 35, 36, 46, 47, 37, 45, 40, 44, 31, 43]);
% time elapsed: 1.67 s
----------
%%%mzn-stat: initTime=0.022897495
%%%mzn-stat: objective=908
%%%mzn-stat: nodes=3425
%%%mzn-stat: restarts=0
%%%mzn-stat: peakDepth=453
%%%mzn-stat: solveTime=0.05437566
%%%mzn-stat: variables=1002
%%%mzn-stat: propagators=632
%%%mzn-stat: failures=161
%%%mzn-stat: propagations=20909
%%%mzn-stat: nogoods=161
%%%mzn-stat: numAtomicConstraintsPropagated=0
%%%mzn-stat: allDifferentNumber1TotalHallSetSize=564
%%%mzn-stat: allDifferentNumber1NumberOfConflicts=161
%%%mzn-stat: allDifferentNumber1MaxHallSetSize=49
%%%mzn-stat: allDifferentNumber1PropagationsTotal=3058
%%%mzn-stat: allDifferentNumber1PropagationsThatFoundConflict=161
%%%mzn-stat: circuitNumber2PropagationsThatFoundConflict=0
%%%mzn-stat: circuitNumber2TotalFixedEdgesAtConflict=0
%%%mzn-stat: circuitNumber2NumberOfConflicts=0
%%%mzn-stat: circuitNumber2PropagationsThatPruned=14
%%%mzn-stat: circuitNumber2PropagationsTotal=2499
%%%mzn-stat: AverageConflictSize=3.1739130434782608
%%%mzn-stat: NumUnitNogoodsLearned=0
%%%mzn-stat: AverageLearnedNogoodLength=3.1552795031055902
%%%mzn-stat: AverageBacktrackAmount=0
%%%mzn-stat: AverageLbd=2.9627329192546585
%%%mzn-stat: 2AutonomousSearchNumBackupCalled=783
%%%mzn-stat: 2AutonomousSearchNumPredicatesRemoved=0
%%%mzn-stat: 2AutonomousSearchNumCalls=785
%%%mzn-stat: 2AutonomousSearchNumPredicatesAdded=313
%%%mzn-stat: 2AutonomousSearchAverageSizeOfHeap=0.6496815286624203
%%%mzn-stat: 2AutonomousSearchNumAssignedPredicatesEncountered=510
%%%mzn-stat-end
maxleg = 908;
succ = array1d(1..50,[2, 15, 21, 3, 7, 18, 10, 20, 12, 16, 19, 4, 1, 24, 5, 8, 33, 22, 23, 6, 17, 32, 14, 9, 34, 11, 39, 50, 48, 49, 13, 25, 30, 38, 28, 27, 29, 42, 41, 26, 35, 36, 46, 47, 37, 45, 40, 44, 31, 43]);
% time elapsed: 1.67 s
----------
%%%mzn-stat: initTime=0.022897495
%%%mzn-stat: objective=896
%%%mzn-stat: nodes=4041
%%%mzn-stat: restarts=0
%%%mzn-stat: peakDepth=453
%%%mzn-stat: solveTime=0.06288187
%%%mzn-stat: variables=1002
%%%mzn-stat: propagators=632
%%%mzn-stat: failures=204
%%%mzn-stat: propagations=23959
%%%mzn-stat: nogoods=204
%%%mzn-stat: numAtomicConstraintsPropagated=0
%%%mzn-stat: allDifferentNumber1TotalHallSetSize=885
%%%mzn-stat: allDifferentNumber1NumberOfConflicts=204
%%%mzn-stat: allDifferentNumber1MaxHallSetSize=49
%%%mzn-stat: allDifferentNumber1PropagationsTotal=3405
%%%mzn-stat: allDifferentNumber1PropagationsThatFoundConflict=204
%%%mzn-stat: circuitNumber2PropagationsThatFoundConflict=0
%%%mzn-stat: circuitNumber2TotalFixedEdgesAtConflict=0
%%%mzn-stat: circuitNumber2NumberOfConflicts=0
%%%mzn-stat: circuitNumber2PropagationsThatPruned=19
%%%mzn-stat: circuitNumber2PropagationsTotal=2744
%%%mzn-stat: AverageConflictSize=4.372549019607843
%%%mzn-stat: NumUnitNogoodsLearned=0
%%%mzn-stat: AverageLearnedNogoodLength=5.019607843137255
%%%mzn-stat: AverageBacktrackAmount=0
%%%mzn-stat: AverageLbd=4.034313725490196
%%%mzn-stat: 2AutonomousSearchNumBackupCalled=1132
%%%mzn-stat: 2AutonomousSearchNumPredicatesRemoved=0
%%%mzn-stat: 2AutonomousSearchNumCalls=1135
%%%mzn-stat: 2AutonomousSearchNumPredicatesAdded=785
%%%mzn-stat: 2AutonomousSearchAverageSizeOfHeap=1.036123348017621
%%%mzn-stat: 2AutonomousSearchNumAssignedPredicatesEncountered=1176
%%%mzn-stat-end
maxleg = 896;
succ = array1d(1..50,[2, 15, 21, 3, 7, 18, 10, 20, 12, 16, 29, 4, 1, 24, 5, 8, 33, 22, 23, 6, 17, 32, 40, 9, 34, 50, 39, 14, 48, 49, 13, 25, 30, 11, 28, 27, 38, 42, 41, 26, 35, 36, 46, 47, 37, 45, 19, 44, 31, 43]);
% time elapsed: 1.67 s
----------
%%%mzn-stat: initTime=0.022897495
%%%mzn-stat: objective=890
%%%mzn-stat: nodes=4594
%%%mzn-stat: restarts=0
%%%mzn-stat: peakDepth=453
%%%mzn-stat: solveTime=0.069739202
%%%mzn-stat: variables=1002
%%%mzn-stat: propagators=632
%%%mzn-stat: failures=242
%%%mzn-stat: propagations=26784
%%%mzn-stat: nogoods=242
%%%mzn-stat: numAtomicConstraintsPropagated=0
%%%mzn-stat: allDifferentNumber1TotalHallSetSize=1074
%%%mzn-stat: allDifferentNumber1NumberOfConflicts=238
%%%mzn-stat: allDifferentNumber1MaxHallSetSize=49
%%%mzn-stat: allDifferentNumber1PropagationsTotal=3661
%%%mzn-stat: allDifferentNumber1PropagationsThatFoundConflict=238
%%%mzn-stat: circuitNumber2PropagationsThatFoundConflict=2
%%%mzn-stat: circuitNumber2TotalFixedEdgesAtConflict=91
%%%mzn-stat: circuitNumber2NumberOfConflicts=2
%%%mzn-stat: circuitNumber2PropagationsThatPruned=28
%%%mzn-stat: circuitNumber2PropagationsTotal=2929
%%%mzn-stat: AverageConflictSize=4.9958677685950414
%%%mzn-stat: NumUnitNogoodsLearned=0
%%%mzn-stat: AverageLearnedNogoodLength=6.417355371900826
%%%mzn-stat: AverageBacktrackAmount=0
%%%mzn-stat: AverageLbd=4.776859504132231
%%%mzn-stat: 2AutonomousSearchNumBackupCalled=1496
%%%mzn-stat: 2AutonomousSearchNumPredicatesRemoved=0
%%%mzn-stat: 2AutonomousSearchNumCalls=1500
%%%mzn-stat: 2AutonomousSearchNumPredicatesAdded=1317
%%%mzn-stat: 2AutonomousSearchAverageSizeOfHeap=1.376
%%%mzn-stat: 2AutonomousSearchNumAssignedPredicatesEncountered=2064
%%%mzn-stat-end
maxleg = 890;
succ = array1d(1..50,[2, 15, 21, 3, 7, 18, 10, 20, 12, 16, 46, 4, 1, 24, 5, 8, 33, 22, 23, 6, 17, 32, 30, 9, 34, 11, 39, 14, 48, 49, 13, 25, 45, 38, 28, 27, 29, 42, 41, 26, 35, 36, 19, 47, 37, 50, 40, 44, 31, 43]);
% time elapsed: 1.68 s
----------
%%%mzn-stat: initTime=0.022897495
%%%mzn-stat: objective=852
%%%mzn-stat: nodes=5088
%%%mzn-stat: restarts=0
%%%mzn-stat: peakDepth=453
%%%mzn-stat: solveTime=0.074304274
%%%mzn-stat: variables=1002
%%%mzn-stat: propagators=632
%%%mzn-stat: failures=264
%%%mzn-stat: propagations=29150
%%%mzn-stat: nogoods=264
%%%mzn-stat: numAtomicConstraintsPropagated=0
%%%mzn-stat: allDifferentNumber1TotalHallSetSize=1161
%%%mzn-stat: allDifferentNumber1NumberOfConflicts=260
%%%mzn-stat: allDifferentNumber1MaxHallSetSize=49
%%%mzn-stat: allDifferentNumber1PropagationsTotal=3884
%%%mzn-stat: allDifferentNumber1PropagationsThatFoundConflict=260
%%%mzn-stat: circuitNumber2PropagationsThatFoundConflict=2
%%%mzn-stat: circuitNumber2TotalFixedEdgesAtConflict=91
%%%mzn-stat: circuitNumber2NumberOfConflicts=2
%%%mzn-stat: circuitNumber2PropagationsThatPruned=40
%%%mzn-stat: circuitNumber2PropagationsTotal=3075
%%%mzn-stat: AverageConflictSize=4.984848484848484
%%%mzn-stat: NumUnitNogoodsLearned=0
%%%mzn-stat: AverageLearnedNogoodLength=6.329545454545454
%%%mzn-stat: AverageBacktrackAmount=0
%%%mzn-stat: AverageLbd=4.723484848484849
%%%mzn-stat: 2AutonomousSearchNumBackupCalled=1839
%%%mzn-stat: 2AutonomousSearchNumPredicatesRemoved=0
%%%mzn-stat: 2AutonomousSearchNumCalls=1844
%%%mzn-stat: 2AutonomousSearchNumPredicatesAdded=1431
%%%mzn-stat: 2AutonomousSearchAverageSizeOfHeap=1.6073752711496747
%%%mzn-stat: 2AutonomousSearchNumAssignedPredicatesEncountered=2964
%%%mzn-stat-end
maxleg = 852;
succ = array1d(1..50,[2, 15, 21, 3, 7, 18, 10, 20, 12, 16, 46, 4, 1, 24, 5, 8, 33, 22, 23, 6, 27, 37, 42, 9, 34, 11, 32, 14, 48, 49, 19, 25, 30, 38, 28, 50, 29, 13, 41, 26, 35, 47, 39, 17, 36, 45, 40, 44, 31, 43]);
% time elapsed: 1.68 s
----------
%%%mzn-stat: initTime=0.022897495
%%%mzn-stat: objective=801
%%%mzn-stat: nodes=5674
%%%mzn-stat: restarts=0
%%%mzn-stat: peakDepth=453
%%%mzn-stat: solveTime=0.081329013
%%%mzn-stat: variables=1002
%%%mzn-stat: propagators=632
%%%mzn-stat: failures=286
%%%mzn-stat: propagations=32099
%%%mzn-stat: nogoods=286
%%%mzn-stat: numAtomicConstraintsPropagated=0
%%%mzn-stat: allDifferentNumber1TotalHallSetSize=1334
%%%mzn-stat: allDifferentNumber1NumberOfConflicts=281
%%%mzn-stat: allDifferentNumber1MaxHallSetSize=49
%%%mzn-stat: allDifferentNumber1PropagationsTotal=4188
%%%mzn-stat: allDifferentNumber1PropagationsThatFoundConflict=281
%%%mzn-stat: circuitNumber2PropagationsThatFoundConflict=2
%%%mzn-stat: circuitNumber2TotalFixedEdgesAtConflict=91
%%%mzn-stat: circuitNumber2NumberOfConflicts=2
%%%mzn-stat: circuitNumber2PropagationsThatPruned=49
%%%mzn-stat: circuitNumber2PropagationsTotal=3315
%%%mzn-stat: AverageConflictSize=5.513986013986014
%%%mzn-stat: NumUnitNogoodsLearned=0
%%%mzn-stat: AverageLearnedNogoodLength=6.744755244755245
%%%mzn-stat: AverageBacktrackAmount=0
%%%mzn-stat: AverageLbd=4.888111888111888
%%%mzn-stat: 2AutonomousSearchNumBackupCalled=2175
%%%mzn-stat: 2AutonomousSearchNumPredicatesRemoved=0
%%%mzn-stat: 2AutonomousSearchNumCalls=2181
%%%mzn-stat: 2AutonomousSearchNumPredicatesAdded=1627
%%%mzn-stat: 2AutonomousSearchAverageSizeOfHeap=1.7900045850527282
%%%mzn-stat: 2AutonomousSearchNumAssignedPredicatesEncountered=3904
%%%mzn-stat-end
maxleg = 801;
succ = array1d(1..50,[2, 40, 15, 3, 7, 18, 10, 20, 12, 16, 46, 4, 1, 24, 5, 8, 33, 22, 23, 6, 25, 32, 42, 9, 34, 11, 39, 14, 48, 49, 13, 21, 30, 38, 28, 27, 29, 37, 41, 26, 35, 47, 19, 17, 36, 45, 31, 44, 50, 43]);
% time elapsed: 1.69 s
----------
%%%mzn-stat: initTime=0.022897495
%%%mzn-stat: objective=774
%%%mzn-stat: nodes=6159
%%%mzn-stat: restarts=0
%%%mzn-stat: peakDepth=453
%%%mzn-stat: solveTime=0.086525638
%%%mzn-stat: variables=1002
%%%mzn-stat: propagators=632
%%%mzn-stat: failures=309
%%%mzn-stat: propagations=34816
%%%mzn-stat: nogoods=309
%%%mzn-stat: numAtomicConstraintsPropagated=0
%%%mzn-stat: allDifferentNumber1TotalHallSetSize=1459
%%%mzn-stat: allDifferentNumber1NumberOfConflicts=304
%%%mzn-stat: allDifferentNumber1MaxHallSetSize=49
%%%mzn-stat: allDifferentNumber1PropagationsTotal=4410
%%%mzn-stat: allDifferentNumber1PropagationsThatFoundConflict=304
%%%mzn-stat: circuitNumber2PropagationsThatFoundConflict=2
%%%mzn-stat: circuitNumber2TotalFixedEdgesAtConflict=91
%%%mzn-stat: circuitNumber2NumberOfConflicts=2
%%%mzn-stat: circuitNumber2PropagationsThatPruned=59
%%%mzn-stat: circuitNumber2PropagationsTotal=3472
%%%mzn-stat: AverageConflictSize=5.669902912621359
%%%mzn-stat: NumUnitNogoodsLearned=0
%%%mzn-stat: AverageLearnedNogoodLength=6.919093851132686
%%%mzn-stat: AverageBacktrackAmount=0
%%%mzn-stat: AverageLbd=4.948220064724919
%%%mzn-stat: 2AutonomousSearchNumBackupCalled=2497
%%%mzn-stat: 2AutonomousSearchNumPredicatesRemoved=0
%%%mzn-stat: 2AutonomousSearchNumCalls=2504
%%%mzn-stat: 2AutonomousSearchNumPredicatesAdded=2027
%%%mzn-stat: 2AutonomousSearchAverageSizeOfHeap=1.9780351437699681
%%%mzn-stat: 2AutonomousSearchNumAssignedPredicatesEncountered=4953
%%%mzn-stat-end
maxleg = 774;
succ = array1d(1..50,[2, 40, 15, 3, 7, 18, 10, 20, 12, 16, 46, 4, 1, 25, 5, 8, 33, 22, 23, 6, 27, 32, 42, 11, 34, 24, 39, 14, 48, 49, 13, 21, 30, 38, 28, 50, 29, 37, 41, 26, 35, 47, 19, 17, 36, 45, 9, 44, 31, 43]);
% time elapsed: 1.69 s
----------
==========
% time elapsed: 1.69 s
%%%mzn-stat: initTime=0.022897495
%%%mzn-stat: objective=774
%%%mzn-stat: nodes=6159
%%%mzn-stat: restarts=0
%%%mzn-stat: peakDepth=453
%%%mzn-stat: solveTime=0.086591814
%%%mzn-stat: variables=1002
%%%mzn-stat: propagators=632
%%%mzn-stat: failures=310
%%%mzn-stat: propagations=34925
%%%mzn-stat: nogoods=310
%%%mzn-stat: numAtomicConstraintsPropagated=0
%%%mzn-stat: allDifferentNumber1TotalHallSetSize=1459
%%%mzn-stat: allDifferentNumber1NumberOfConflicts=304
%%%mzn-stat: allDifferentNumber1MaxHallSetSize=49
%%%mzn-stat: allDifferentNumber1PropagationsTotal=4410
%%%mzn-stat: allDifferentNumber1PropagationsThatFoundConflict=304
%%%mzn-stat: circuitNumber2PropagationsThatFoundConflict=2
%%%mzn-stat: circuitNumber2TotalFixedEdgesAtConflict=91
%%%mzn-stat: circuitNumber2NumberOfConflicts=2
%%%mzn-stat: circuitNumber2PropagationsThatPruned=59
%%%mzn-stat: circuitNumber2PropagationsTotal=3472
%%%mzn-stat: AverageConflictSize=5.658064516129032
%%%mzn-stat: NumUnitNogoodsLearned=1
%%%mzn-stat: AverageLearnedNogoodLength=6.9
%%%mzn-stat: AverageBacktrackAmount=0
%%%mzn-stat: AverageLbd=4.935483870967742
%%%mzn-stat: 2AutonomousSearchNumBackupCalled=2497
%%%mzn-stat: 2AutonomousSearchNumPredicatesRemoved=0
%%%mzn-stat: 2AutonomousSearchNumCalls=2504
%%%mzn-stat: 2AutonomousSearchNumPredicatesAdded=2062
%%%mzn-stat: 2AutonomousSearchAverageSizeOfHeap=1.9780351437699681
%%%mzn-stat: 2AutonomousSearchNumAssignedPredicatesEncountered=4953
%%%mzn-stat-end
